DATASET = "thpack5";
INSTANCE = "099";

WIDTH = 233;
HEIGHT = 220;
LENGTH = 587;

NO_OF_SHAPES = 12;
size = [|
  51,46,44 |
  95,92,47 |
  116,39,23 |
  51,37,32 |
  117,44,38 |
  103,89,73 |
  73,55,54 |
  116,98,40 |
  62,48,22 |
  106,38,30 |
  100,40,32 |
  87,53,26 |
|];

verticality = [|
  1,1,1 |
  0,1,1 |
  0,1,1 |
  1,1,1 |
  0,1,1 |
  1,1,1 |
  1,1,1 |
  0,0,1 |
  0,0,1 |
  0,1,1 |
  0,1,1 |
  0,0,1 |
|];

box_count = [
  20,
  16,
  12,
  8,
  8,
  9,
  13,
  10,
  9,
  8,
  14,
  8,
];
